0 6725 5474 3237 5566 7594 6510 3221 9257 6624 4132
6725 0 2372 2209 8280 1657 3674 5360 9487 6959 186
5474 2372 0 9985 5987 3691 9523 2184 891 1488 2113
3237 2209 9985 0 3587 3906 2694 3360 8328 3074 6402
5566 8280 5987 3587 0 2662 985 3740 7800 6208 3103
7594 1657 3691 3906 2662 0 2010 654 2638 5658 3515
6510 3674 9523 2694 985 2010 0 9095 3702 4145 9118
3221 5360 2184 3360 3740 654 9095 0 4628 6166 2901
9257 9487 891 8328 7800 2638 3702 4628 0 2228 7582
6624 6959 1488 3074 6208 5658 4145 6166 2228 0 5239
4132 186 2113 6402 3103 3515 9118 2901 7582 5239 0
